10  5
 1  6  0  3  2  9  3  7  4 10  22 182  10
 3 11  0  5  2 12  1  6  4 11  32 177  10
 3 10  0  8  2 10  1  6  4  9  17 192  10
 3 11  0 10  2 15  1  6  4 10  32 183   5
 1 11  3  9  2  9  0  3  4 14   0 192   5
 3  8  1  9  2 13  0  7  4 12  18 168   5
 3  4  1  3  2 14  0  3  4 11  35 160   5
 0  4  1  4  2 12  3 10  4 12  35 196  10
 0  4  1  4  2 11  3  7  4  8   3 177  10
 1  9  3  3  2 14  0  8  4 12  21 160  10
